(set-logic ALL)
(declare-var conf_0 (_ BitVec 32))
(declare-var conf_0! (_ BitVec 32))
(declare-var conf_1 (_ BitVec 32))
(declare-var conf_1! (_ BitVec 32))
(declare-var conf_2 (_ BitVec 32))
(declare-var conf_2! (_ BitVec 32))
(declare-var conf_3 (_ BitVec 32))
(declare-var conf_3! (_ BitVec 32))
(declare-var conf_4 (_ BitVec 32))
(declare-var conf_4! (_ BitVec 32))
(declare-var sn (_ BitVec 32))
(declare-var sn! (_ BitVec 32))
(declare-var x (_ BitVec 32))
(declare-var x! (_ BitVec 32))
(declare-var tmp (_ BitVec 32))
(declare-var tmp! (_ BitVec 32))
(declare-var conf_0_0 (_ BitVec 32))
(declare-var conf_0_0! (_ BitVec 32))
(declare-var conf_1_0 (_ BitVec 32))
(declare-var conf_1_0! (_ BitVec 32))
(declare-var conf_2_0 (_ BitVec 32))
(declare-var conf_2_0! (_ BitVec 32))
(declare-var conf_2_1 (_ BitVec 32))
(declare-var conf_2_1! (_ BitVec 32))
(declare-var conf_2_2 (_ BitVec 32))
(declare-var conf_2_2! (_ BitVec 32))
(declare-var conf_3_0 (_ BitVec 32))
(declare-var conf_3_0! (_ BitVec 32))
(declare-var conf_3_1 (_ BitVec 32))
(declare-var conf_3_1! (_ BitVec 32))
(declare-var conf_3_2 (_ BitVec 32))
(declare-var conf_3_2! (_ BitVec 32))
(declare-var conf_4_0 (_ BitVec 32))
(declare-var conf_4_0! (_ BitVec 32))
(declare-var sn_0 (_ BitVec 32))
(declare-var sn_0! (_ BitVec 32))
(declare-var sn_1 (_ BitVec 32))
(declare-var sn_1! (_ BitVec 32))
(declare-var sn_2 (_ BitVec 32))
(declare-var sn_2! (_ BitVec 32))
(declare-var sn_3 (_ BitVec 32))
(declare-var sn_3! (_ BitVec 32))
(declare-var x_0 (_ BitVec 32))
(declare-var x_0! (_ BitVec 32))
(declare-var x_1 (_ BitVec 32))
(declare-var x_1! (_ BitVec 32))
(declare-var x_2 (_ BitVec 32))
(declare-var x_2! (_ BitVec 32))
(declare-var x_3 (_ BitVec 32))
(declare-var x_3! (_ BitVec 32))
(synth-fun inv-f((parameter0 (_ BitVec 32))(parameter1 (_ BitVec 32))(parameter2 (_ BitVec 32))(parameter3 (_ BitVec 32))(parameter4 (_ BitVec 32))(parameter5 (_ BitVec 32))(parameter6 (_ BitVec 32))(parameter7 (_ BitVec 32))(parameter8 (_ BitVec 32))(parameter9 (_ BitVec 32))(parameter10 (_ BitVec 32))(parameter11 (_ BitVec 32))(parameter12 (_ BitVec 32))(parameter13 (_ BitVec 32))(parameter14 (_ BitVec 32))(parameter15 (_ BitVec 32))(parameter16 (_ BitVec 32))(parameter17 (_ BitVec 32))(parameter18 (_ BitVec 32))(parameter19 (_ BitVec 32))(parameter20 (_ BitVec 32))(parameter21 (_ BitVec 32))(parameter22 (_ BitVec 32))(parameter23 (_ BitVec 32))(parameter24 (_ BitVec 32)))Bool) 
(constraint (=> (and (and (and (and (and (and (and (and (and (and (and (and (and (= conf_0 conf_0_0) (= conf_1 conf_1_0) ) (= conf_2 conf_2_0) ) (= conf_3 conf_3_0) ) (= conf_4 conf_4_0) ) (= sn sn_1) ) (= x x_1) ) (= conf_0_0 (_ bv8 32)) ) (= conf_1_0 (_ bv3 32)) ) (= conf_2_0 (_ bv4 32)) ) (= conf_3_0 (_ bv4 32)) ) (= conf_4_0 (_ bv7 32)) ) (= sn_1 (_ bv0 32)) ) (= x_1 (_ bv0 32)) )(inv-f conf_0 conf_1 conf_2 conf_3 conf_4 sn x tmp conf_0_0 conf_1_0 conf_2_0 conf_2_1 conf_2_2 conf_3_0 conf_3_1 conf_3_2 conf_4_0 sn_0 sn_1 sn_2 sn_3 x_0 x_1 x_2 x_3 )))
(constraint (=> (and (inv-f conf_0 conf_1 conf_2 conf_3 conf_4 sn x tmp conf_0_0 conf_1_0 conf_2_0 conf_2_1 conf_2_2 conf_3_0 conf_3_1 conf_3_2 conf_4_0 sn_0 sn_1 sn_2 sn_3 x_0 x_1 x_2 x_3 ) (or (and (and (and (and (and (and (and (and (and (and (and (and (and (and (and (= conf_2_1 conf_2) (= conf_3_1 conf_3) ) (= sn_2 sn) ) (= x_2 x) ) (= conf_2_1 conf_2!) ) (= conf_3_1 conf_3!) ) (= sn_2 sn!) ) (= x_2 x!) ) (= conf_0 conf_0!) ) (= conf_1 conf_1!) ) (= conf_2 conf_2!) ) (= conf_3 conf_3!) ) (= conf_4 conf_4!) ) (= sn sn!) ) (= x x!) ) (= tmp tmp!) ) (and (and (and (and (and (and (and (and (and (and (and (and (and (and (and (and (and (and (= conf_2_1 conf_2) (= conf_3_1 conf_3) ) (= sn_2 sn) ) (= x_2 x) ) (= x_3 (bvadd x_2 (_ bv1 32))) ) (= conf_3_2 (bvadd conf_3_1 conf_0_0)) ) (= sn_3 (bvadd sn_2 (_ bv1 32))) ) (= conf_2_2 (_ bv858 32)) ) (= conf_2_2 conf_2!) ) (= conf_3_2 conf_3!) ) (= sn_3 sn!) ) (= x_3 x!) ) (= conf_0 conf_0_0) ) (= conf_0! conf_0_0) ) (= conf_1 conf_1_0) ) (= conf_1! conf_1_0) ) (= conf_4 conf_4_0) ) (= conf_4! conf_4_0) ) (= tmp tmp!) ) ) )(inv-f conf_0! conf_1! conf_2! conf_3! conf_4! sn! x! tmp! conf_0_0! conf_1_0! conf_2_0! conf_2_1! conf_2_2! conf_3_0! conf_3_1! conf_3_2! conf_4_0! sn_0! sn_1! sn_2! sn_3! x_0! x_1! x_2! x_3! )))
(constraint (=> (inv-f conf_0 conf_1 conf_2 conf_3 conf_4 sn x tmp conf_0_0 conf_1_0 conf_2_0 conf_2_1 conf_2_2 conf_3_0 conf_3_1 conf_3_2 conf_4_0 sn_0 sn_1 sn_2 sn_3 x_0 x_1 x_2 x_3 )(or (not (and (and (and (and (and (and (= conf_0 conf_0_0) (= conf_1 conf_1_0) ) (= conf_2 conf_2_1) ) (= conf_3 conf_3_1) ) (= conf_4 conf_4_0) ) (= sn sn_2) ) (= x x_2) )) (not (and (not (= sn_2 (_ bv4294967295 32))) (not (= sn_2 x_2)) )) )))
(check-synth)

